969411
9 6 47658
6 1 25297
1 10 6947
10 35 6355
35 11 5412
11 8 17581
8 15 26227
15 17 45489
17 14 42391
14 3 30026
3 16 71701
16 2 57771
2 27 15288
27 19 17774
19 40 13572
40 18 18404
18 21 18931
21 7 17005
7 36 11794
36 29 16895
29 38 745
38 23 7449
23 28 15996
28 13 6411
13 22 39393
22 4 23621
4 24 52566
24 5 63665
5 32 3290
32 12 37145
12 33 3967
33 26 15458
26 20 24941
20 30 17244
30 37 941
37 39 6534
39 31 9087
31 25 7859
25 34 30137
34 9 90444
